c turning on binary mode checking
c parsing input formula with 202048 variables and 780990 clauses
c finished parsing, read 33146 bytes from proof file
c detected empty clause; start verification via backward checking
c 649 of 780990 clauses in core                            
c 39 of 5974 lemmas in core using 3735 resolution steps
c 0 RAT lemmas in core; 3 redundant literals in core lemmas
s VERIFIED
c verification time: 0.693 seconds
